10
1 0 27
2 0 20
2 1 31
3 0 28
3 1 51
3 2 19
4 0 11
4 1 48
4 2 1
4 3 44
5 0 37
5 1 1
5 2 54
5 3 44
5 4 47
6 0 17
6 1 2
6 2 4
6 3 22
6 4 13
6 5 35
7 0 43
7 1 25
7 2 34
7 3 54
7 4 27
7 5 47
7 6 47
8 0 22
8 1 55
8 2 42
8 3 16
8 4 43
8 5 28
8 6 26
8 7 25
9 0 16
9 1 32
9 2 53
9 3 36
9 4 26
9 5 23
9 6 23
9 7 53
9 8 42
